22	3
5	8	7	
0	0	0	0	20	2	3	4	5	6	7	8	9	10	11	12	13	14	15	16	17	18	19	20	21	
261	4	1	2	1	22	
2	5	2	1	1	22	
106	1	3	1	1	20	
150	1	1	1	1	22	
5	2	3	1	1	13	
359	2	2	1	1	19	
250	1	1	1	1	16	
3	2	3	2	1	22	
5	2	2	1	1	17	
104	5	3	2	1	22	
3	1	2	2	1	17	
6	2	1	2	1	22	
319	5	3	2	1	22	
1	3	1	1	1	22	
339	1	3	1	1	22	
5	4	2	1	1	22	
56	4	2	2	1	22	
5	4	3	1	1	22	
5	4	2	1	1	22	
3	4	1	1	1	22	
0	0	0	0	0	